clingo version 5.5.2
Reading from stdin
Solving...
UNSATISFIABLE

Models       : 0
Calls        : 1
Time         : 1358.841s (Solving: 5.85s 1st Model: 0.00s Unsat: 5.85s)
CPU Time     : 607.797s

Choices      : 1       
Conflicts    : 2        (Analyzed: 1)
Restarts     : 0       
Stab. Tests  : 1        (Full: 0 Partial: 1)
Problems     : 1        (Average Length: 0.00 Splits: 0)
Lemmas       : 1        (Deleted: 0)
  Binary     : 0        (Ratio:   0.00%)
  Ternary    : 0        (Ratio:   0.00%)
  Conflict   : 1        (Average Length:    1.0 Ratio: 100.00%) 
  Loop       : 0        (Average Length:    0.0 Ratio:   0.00%) 
  Other      : 0        (Average Length:    0.0 Ratio:   0.00%) 
Backjumps    : 1        (Average:  1.00 Max:   1 Sum:      1)
  Executed   : 1        (Average:  1.00 Max:   1 Sum:      1 Ratio: 100.00%)
  Bounded    : 0        (Average:  0.00 Max:   0 Sum:      0 Ratio:   0.00%)

Rules        : 65730095
Atoms        : 24467   
Disjunctions : 3        (Original: 3)
Bodies       : 65486601
Equivalences : 23900    (Atom=Atom: 2424 Body=Body: 9553 Other: 11923)
Tight        : No       (SCCs: 2 Non-Hcfs: 1 Nodes: 65022766 Gammas: 0)
Variables    : 65459478 (Eliminated:    0 Frozen: 65023259)
Constraints  : 327451534 (Binary:  80.0% Ternary:   0.0% Other:  20.0%)

